p cnf 289 1
289 0
w 1 0.285235
w 2 1 0.500477
w 2 -1 0.01176
w 3 2 0
w 3 -2 1
w 4 3 1
w 4 -3 0
w 5 4 1
w 5 -4 0
w 6 5 0
w 6 -5 1
w 7 6 1
w 7 -6 0
w 8 7 1
w 8 -7 0
w 9 8 1
w 9 -8 0
w 10 9 0
w 10 -9 1
w 11 10 1
w 11 -10 0
w 12 11 0
w 12 -11 1
w 13 12 0
w 13 -12 1
w 14 13 1
w 14 -13 0
w 15 14 0
w 15 -14 1
w 16 15 1
w 16 -15 0
w 17 16 1
w 17 -16 0
w 18 1 0
w 18 -1 1
w 19 18 2 1
w 19 18 -2 1
w 19 -18 2 1
w 19 -18 -2 0
w 20 19 3 1
w 20 19 -3 1
w 20 -19 3 1
w 20 -19 -3 0
w 21 20 4 1
w 21 20 -4 0
w 21 -20 4 1
w 21 -20 -4 1
w 22 21 5 1
w 22 21 -5 1
w 22 -21 5 1
w 22 -21 -5 0
w 23 22 6 0
w 23 22 -6 0
w 23 -22 6 0
w 23 -22 -6 1
w 24 23 7 0
w 24 23 -7 0
w 24 -23 7 1
w 24 -23 -7 0
w 25 24 8 0
w 25 24 -8 1
w 25 -24 8 1
w 25 -24 -8 0
w 26 25 9 0
w 26 25 -9 0
w 26 -25 9 1
w 26 -25 -9 1
w 27 26 10 0
w 27 26 -10 0
w 27 -26 10 0
w 27 -26 -10 1
w 28 27 11 0
w 28 27 -11 1
w 28 -27 11 1
w 28 -27 -11 1
w 29 28 12 1
w 29 28 -12 0
w 29 -28 12 1
w 29 -28 -12 1
w 30 29 13 0
w 30 29 -13 1
w 30 -29 13 0
w 30 -29 -13 1
w 31 30 14 0.725844
w 31 30 -14 0.795112
w 31 -30 14 0.0979142
w 31 -30 -14 0.610889
w 32 31 15 0
w 32 31 -15 1
w 32 -31 15 1
w 32 -31 -15 0
w 33 32 16 0
w 33 32 -16 0
w 33 -32 16 1
w 33 -32 -16 0
w 34 33 17 0
w 34 33 -17 1
w 34 -33 17 0
w 34 -33 -17 0
w 35 18 1
w 35 -18 0
w 36 35 19 1
w 36 35 -19 0
w 36 -35 19 1
w 36 -35 -19 1
w 37 36 20 1
w 37 36 -20 0
w 37 -36 20 0
w 37 -36 -20 1
w 38 37 21 0
w 38 37 -21 1
w 38 -37 21 0
w 38 -37 -21 0
w 39 38 22 0
w 39 38 -22 0
w 39 -38 22 0
w 39 -38 -22 1
w 40 39 23 0
w 40 39 -23 1
w 40 -39 23 1
w 40 -39 -23 0
w 41 40 24 1
w 41 40 -24 0
w 41 -40 24 0
w 41 -40 -24 0
w 42 41 25 1
w 42 41 -25 0
w 42 -41 25 0
w 42 -41 -25 0
w 43 42 26 1
w 43 42 -26 0
w 43 -42 26 1
w 43 -42 -26 0
w 44 43 27 1
w 44 43 -27 0
w 44 -43 27 1
w 44 -43 -27 0
w 45 44 28 1
w 45 44 -28 0
w 45 -44 28 1
w 45 -44 -28 1
w 46 45 29 0
w 46 45 -29 1
w 46 -45 29 0
w 46 -45 -29 1
w 47 46 30 0
w 47 46 -30 1
w 47 -46 30 0
w 47 -46 -30 0
w 48 47 31 1
w 48 47 -31 1
w 48 -47 31 0
w 48 -47 -31 1
w 49 48 32 1
w 49 48 -32 0
w 49 -48 32 1
w 49 -48 -32 1
w 50 49 33 0
w 50 49 -33 0
w 50 -49 33 1
w 50 -49 -33 0
w 51 50 34 1
w 51 50 -34 1
w 51 -50 34 1
w 51 -50 -34 0
w 52 35 0.851611
w 52 -35 0.919542
w 53 52 36 1
w 53 52 -36 0
w 53 -52 36 0
w 53 -52 -36 1
w 54 53 37 1
w 54 53 -37 0
w 54 -53 37 0
w 54 -53 -37 0
w 55 54 38 0
w 55 54 -38 1
w 55 -54 38 1
w 55 -54 -38 0
w 56 55 39 0
w 56 55 -39 1
w 56 -55 39 0
w 56 -55 -39 1
w 57 56 40 1
w 57 56 -40 1
w 57 -56 40 0
w 57 -56 -40 1
w 58 57 41 0
w 58 57 -41 1
w 58 -57 41 1
w 58 -57 -41 1
w 59 58 42 0
w 59 58 -42 1
w 59 -58 42 0
w 59 -58 -42 0
w 60 59 43 0
w 60 59 -43 1
w 60 -59 43 1
w 60 -59 -43 1
w 61 60 44 0
w 61 60 -44 0
w 61 -60 44 0
w 61 -60 -44 1
w 62 61 45 0
w 62 61 -45 1
w 62 -61 45 0
w 62 -61 -45 0
w 63 62 46 1
w 63 62 -46 1
w 63 -62 46 1
w 63 -62 -46 0
w 64 63 47 0.902475
w 64 63 -47 0.216775
w 64 -63 47 0.368926
w 64 -63 -47 0.632602
w 65 64 48 1
w 65 64 -48 1
w 65 -64 48 1
w 65 -64 -48 0
w 66 65 49 0
w 66 65 -49 1
w 66 -65 49 1
w 66 -65 -49 1
w 67 66 50 1
w 67 66 -50 1
w 67 -66 50 0
w 67 -66 -50 0
w 68 67 51 0
w 68 67 -51 0
w 68 -67 51 1
w 68 -67 -51 1
w 69 52 0
w 69 -52 1
w 70 69 53 0.701226
w 70 69 -53 0.879151
w 70 -69 53 0.902002
w 70 -69 -53 0.6037
w 71 70 54 1
w 71 70 -54 1
w 71 -70 54 0
w 71 -70 -54 0
w 72 71 55 0.288902
w 72 71 -55 0.401497
w 72 -71 55 0.981648
w 72 -71 -55 0.363961
w 73 72 56 1
w 73 72 -56 1
w 73 -72 56 1
w 73 -72 -56 0
w 74 73 57 0
w 74 73 -57 1
w 74 -73 57 0
w 74 -73 -57 1
w 75 74 58 1
w 75 74 -58 1
w 75 -74 58 1
w 75 -74 -58 0
w 76 75 59 1
w 76 75 -59 0
w 76 -75 59 0
w 76 -75 -59 0
w 77 76 60 1
w 77 76 -60 1
w 77 -76 60 0
w 77 -76 -60 1
w 78 77 61 1
w 78 77 -61 1
w 78 -77 61 1
w 78 -77 -61 0
w 79 78 62 0.919239
w 79 78 -62 0.331435
w 79 -78 62 0.504064
w 79 -78 -62 0.162697
w 80 79 63 0.708409
w 80 79 -63 0.258472
w 80 -79 63 0.531253
w 80 -79 -63 0.68861
w 81 80 64 0.280431
w 81 80 -64 0.273034
w 81 -80 64 0.899886
w 81 -80 -64 0.859262
w 82 81 65 0
w 82 81 -65 0
w 82 -81 65 1
w 82 -81 -65 0
w 83 82 66 0.61605
w 83 82 -66 0.143134
w 83 -82 66 0.807558
w 83 -82 -66 0.703563
w 84 83 67 0
w 84 83 -67 1
w 84 -83 67 0
w 84 -83 -67 0
w 85 84 68 1
w 85 84 -68 0
w 85 -84 68 1
w 85 -84 -68 1
w 86 69 0
w 86 -69 1
w 87 86 70 1
w 87 86 -70 0
w 87 -86 70 1
w 87 -86 -70 1
w 88 87 71 0
w 88 87 -71 1
w 88 -87 71 1
w 88 -87 -71 0
w 89 88 72 0
w 89 88 -72 0
w 89 -88 72 0
w 89 -88 -72 1
w 90 89 73 0
w 90 89 -73 1
w 90 -89 73 0
w 90 -89 -73 0
w 91 90 74 1
w 91 90 -74 0
w 91 -90 74 1
w 91 -90 -74 0
w 92 91 75 0
w 92 91 -75 0
w 92 -91 75 1
w 92 -91 -75 0
w 93 92 76 1
w 93 92 -76 1
w 93 -92 76 0
w 93 -92 -76 0
w 94 93 77 0
w 94 93 -77 1
w 94 -93 77 0
w 94 -93 -77 1
w 95 94 78 0
w 95 94 -78 1
w 95 -94 78 0
w 95 -94 -78 0
w 96 95 79 0
w 96 95 -79 1
w 96 -95 79 1
w 96 -95 -79 1
w 97 96 80 1
w 97 96 -80 0
w 97 -96 80 1
w 97 -96 -80 0
w 98 97 81 1
w 98 97 -81 0
w 98 -97 81 0
w 98 -97 -81 0
w 99 98 82 1
w 99 98 -82 1
w 99 -98 82 0
w 99 -98 -82 0
w 100 99 83 0
w 100 99 -83 1
w 100 -99 83 0
w 100 -99 -83 0
w 101 100 84 0
w 101 100 -84 0
w 101 -100 84 0
w 101 -100 -84 1
w 102 101 85 1
w 102 101 -85 0
w 102 -101 85 1
w 102 -101 -85 0
w 103 86 0
w 103 -86 1
w 104 103 87 0.408796
w 104 103 -87 0.858304
w 104 -103 87 0.770074
w 104 -103 -87 0.956989
w 105 104 88 1
w 105 104 -88 0
w 105 -104 88 1
w 105 -104 -88 0
w 106 105 89 1
w 106 105 -89 0
w 106 -105 89 1
w 106 -105 -89 1
w 107 106 90 0.116084
w 107 106 -90 0.348045
w 107 -106 90 0.381715
w 107 -106 -90 0.132654
w 108 107 91 0
w 108 107 -91 1
w 108 -107 91 1
w 108 -107 -91 1
w 109 108 92 1
w 109 108 -92 0
w 109 -108 92 1
w 109 -108 -92 1
w 110 109 93 0
w 110 109 -93 0
w 110 -109 93 1
w 110 -109 -93 0
w 111 110 94 0
w 111 110 -94 1
w 111 -110 94 0
w 111 -110 -94 0
w 112 111 95 0
w 112 111 -95 0
w 112 -111 95 0
w 112 -111 -95 1
w 113 112 96 0
w 113 112 -96 1
w 113 -112 96 0
w 113 -112 -96 0
w 114 113 97 0
w 114 113 -97 0
w 114 -113 97 1
w 114 -113 -97 1
w 115 114 98 1
w 115 114 -98 0
w 115 -114 98 1
w 115 -114 -98 1
w 116 115 99 1
w 116 115 -99 0
w 116 -115 99 0
w 116 -115 -99 1
w 117 116 100 0.843735
w 117 116 -100 0.941344
w 117 -116 100 0.547008
w 117 -116 -100 0.866942
w 118 117 101 0
w 118 117 -101 1
w 118 -117 101 1
w 118 -117 -101 1
w 119 118 102 1
w 119 118 -102 1
w 119 -118 102 0
w 119 -118 -102 0
w 120 103 1
w 120 -103 0
w 121 120 104 1
w 121 120 -104 1
w 121 -120 104 1
w 121 -120 -104 0
w 122 121 105 0
w 122 121 -105 1
w 122 -121 105 0
w 122 -121 -105 0
w 123 122 106 0
w 123 122 -106 1
w 123 -122 106 0
w 123 -122 -106 1
w 124 123 107 1
w 124 123 -107 1
w 124 -123 107 1
w 124 -123 -107 0
w 125 124 108 1
w 125 124 -108 0
w 125 -124 108 0
w 125 -124 -108 0
w 126 125 109 0
w 126 125 -109 0
w 126 -125 109 1
w 126 -125 -109 0
w 127 126 110 1
w 127 126 -110 1
w 127 -126 110 0
w 127 -126 -110 1
w 128 127 111 0.179713
w 128 127 -111 0.07165
w 128 -127 111 0.0393964
w 128 -127 -111 0.9937
w 129 128 112 1
w 129 128 -112 0
w 129 -128 112 0
w 129 -128 -112 1
w 130 129 113 1
w 130 129 -113 0
w 130 -129 113 0
w 130 -129 -113 1
w 131 130 114 1
w 131 130 -114 0
w 131 -130 114 1
w 131 -130 -114 1
w 132 131 115 0
w 132 131 -115 0
w 132 -131 115 1
w 132 -131 -115 0
w 133 132 116 1
w 133 132 -116 1
w 133 -132 116 1
w 133 -132 -116 0
w 134 133 117 1
w 134 133 -117 0
w 134 -133 117 1
w 134 -133 -117 1
w 135 134 118 0.555553
w 135 134 -118 0.0320623
w 135 -134 118 0.725745
w 135 -134 -118 0.861301
w 136 135 119 0
w 136 135 -119 0
w 136 -135 119 1
w 136 -135 -119 1
w 137 120 1
w 137 -120 0
w 138 137 121 1
w 138 137 -121 0
w 138 -137 121 0
w 138 -137 -121 1
w 139 138 122 0.847559
w 139 138 -122 0.83511
w 139 -138 122 0.282919
w 139 -138 -122 0.490374
w 140 139 123 1
w 140 139 -123 1
w 140 -139 123 0
w 140 -139 -123 1
w 141 140 124 0
w 141 140 -124 1
w 141 -140 124 1
w 141 -140 -124 0
w 142 141 125 0
w 142 141 -125 0
w 142 -141 125 1
w 142 -141 -125 0
w 143 142 126 0
w 143 142 -126 0
w 143 -142 126 0
w 143 -142 -126 1
w 144 143 127 1
w 144 143 -127 0
w 144 -143 127 1
w 144 -143 -127 0
w 145 144 128 1
w 145 144 -128 0
w 145 -144 128 0
w 145 -144 -128 0
w 146 145 129 0
w 146 145 -129 1
w 146 -145 129 0
w 146 -145 -129 1
w 147 146 130 0.913611
w 147 146 -130 0.0983263
w 147 -146 130 0.507816
w 147 -146 -130 0.110068
w 148 147 131 1
w 148 147 -131 0
w 148 -147 131 0
w 148 -147 -131 0
w 149 148 132 1
w 149 148 -132 0
w 149 -148 132 1
w 149 -148 -132 1
w 150 149 133 0
w 150 149 -133 1
w 150 -149 133 0
w 150 -149 -133 1
w 151 150 134 0
w 151 150 -134 0
w 151 -150 134 1
w 151 -150 -134 0
w 152 151 135 0
w 152 151 -135 1
w 152 -151 135 0
w 152 -151 -135 0
w 153 152 136 1
w 153 152 -136 0
w 153 -152 136 1
w 153 -152 -136 1
w 154 137 1
w 154 -137 0
w 155 154 138 1
w 155 154 -138 1
w 155 -154 138 0
w 155 -154 -138 0
w 156 155 139 1
w 156 155 -139 0
w 156 -155 139 1
w 156 -155 -139 1
w 157 156 140 1
w 157 156 -140 0
w 157 -156 140 1
w 157 -156 -140 1
w 158 157 141 1
w 158 157 -141 0
w 158 -157 141 1
w 158 -157 -141 1
w 159 158 142 1
w 159 158 -142 1
w 159 -158 142 1
w 159 -158 -142 0
w 160 159 143 0
w 160 159 -143 1
w 160 -159 143 0
w 160 -159 -143 1
w 161 160 144 1
w 161 160 -144 0
w 161 -160 144 1
w 161 -160 -144 1
w 162 161 145 0
w 162 161 -145 0
w 162 -161 145 0
w 162 -161 -145 1
w 163 162 146 0
w 163 162 -146 1
w 163 -162 146 1
w 163 -162 -146 0
w 164 163 147 1
w 164 163 -147 1
w 164 -163 147 0
w 164 -163 -147 0
w 165 164 148 1
w 165 164 -148 1
w 165 -164 148 1
w 165 -164 -148 0
w 166 165 149 0.525517
w 166 165 -149 0.841367
w 166 -165 149 0.241661
w 166 -165 -149 0.863952
w 167 166 150 0
w 167 166 -150 1
w 167 -166 150 1
w 167 -166 -150 1
w 168 167 151 1
w 168 167 -151 0
w 168 -167 151 1
w 168 -167 -151 1
w 169 168 152 1
w 169 168 -152 0
w 169 -168 152 0
w 169 -168 -152 0
w 170 169 153 1
w 170 169 -153 1
w 170 -169 153 0
w 170 -169 -153 1
w 171 154 0
w 171 -154 1
w 172 171 155 1
w 172 171 -155 1
w 172 -171 155 0
w 172 -171 -155 0
w 173 172 156 1
w 173 172 -156 0
w 173 -172 156 1
w 173 -172 -156 0
w 174 173 157 0
w 174 173 -157 1
w 174 -173 157 1
w 174 -173 -157 0
w 175 174 158 0.0575486
w 175 174 -158 0.307403
w 175 -174 158 0.522286
w 175 -174 -158 0.47026
w 176 175 159 1
w 176 175 -159 0
w 176 -175 159 1
w 176 -175 -159 1
w 177 176 160 0
w 177 176 -160 0
w 177 -176 160 0
w 177 -176 -160 1
w 178 177 161 0
w 178 177 -161 0
w 178 -177 161 1
w 178 -177 -161 1
w 179 178 162 1
w 179 178 -162 0
w 179 -178 162 0
w 179 -178 -162 1
w 180 179 163 0.0781064
w 180 179 -163 0.228016
w 180 -179 163 0.0585287
w 180 -179 -163 0.450123
w 181 180 164 1
w 181 180 -164 1
w 181 -180 164 0
w 181 -180 -164 0
w 182 181 165 0.712016
w 182 181 -165 0.398152
w 182 -181 165 0.875199
w 182 -181 -165 0.0845717
w 183 182 166 0
w 183 182 -166 1
w 183 -182 166 1
w 183 -182 -166 0
w 184 183 167 1
w 184 183 -167 1
w 184 -183 167 0
w 184 -183 -167 0
w 185 184 168 0
w 185 184 -168 0
w 185 -184 168 0
w 185 -184 -168 1
w 186 185 169 0
w 186 185 -169 1
w 186 -185 169 0
w 186 -185 -169 0
w 187 186 170 0
w 187 186 -170 1
w 187 -186 170 1
w 187 -186 -170 0
w 188 171 1
w 188 -171 0
w 189 188 172 0
w 189 188 -172 0
w 189 -188 172 1
w 189 -188 -172 1
w 190 189 173 0.486423
w 190 189 -173 0.958295
w 190 -189 173 0.765191
w 190 -189 -173 0.349653
w 191 190 174 1
w 191 190 -174 1
w 191 -190 174 0
w 191 -190 -174 1
w 192 191 175 0
w 192 191 -175 1
w 192 -191 175 1
w 192 -191 -175 1
w 193 192 176 0.946366
w 193 192 -176 0.45118
w 193 -192 176 0.810753
w 193 -192 -176 0.0881439
w 194 193 177 1
w 194 193 -177 1
w 194 -193 177 0
w 194 -193 -177 0
w 195 194 178 0
w 195 194 -178 0
w 195 -194 178 1
w 195 -194 -178 1
w 196 195 179 1
w 196 195 -179 1
w 196 -195 179 0
w 196 -195 -179 1
w 197 196 180 0
w 197 196 -180 1
w 197 -196 180 0
w 197 -196 -180 0
w 198 197 181 0
w 198 197 -181 0
w 198 -197 181 0
w 198 -197 -181 1
w 199 198 182 0
w 199 198 -182 1
w 199 -198 182 0
w 199 -198 -182 0
w 200 199 183 0
w 200 199 -183 1
w 200 -199 183 0
w 200 -199 -183 0
w 201 200 184 1
w 201 200 -184 0
w 201 -200 184 1
w 201 -200 -184 0
w 202 201 185 1
w 202 201 -185 1
w 202 -201 185 0
w 202 -201 -185 0
w 203 202 186 1
w 203 202 -186 0
w 203 -202 186 0
w 203 -202 -186 1
w 204 203 187 0
w 204 203 -187 1
w 204 -203 187 0
w 204 -203 -187 0
w 205 188 1
w 205 -188 0
w 206 205 189 1
w 206 205 -189 1
w 206 -205 189 0
w 206 -205 -189 0
w 207 206 190 1
w 207 206 -190 0
w 207 -206 190 1
w 207 -206 -190 0
w 208 207 191 1
w 208 207 -191 0
w 208 -207 191 0
w 208 -207 -191 0
w 209 208 192 0
w 209 208 -192 1
w 209 -208 192 1
w 209 -208 -192 1
w 210 209 193 1
w 210 209 -193 0
w 210 -209 193 1
w 210 -209 -193 1
w 211 210 194 0.00255003
w 211 210 -194 0.57613
w 211 -210 194 0.755767
w 211 -210 -194 0.542491
w 212 211 195 1
w 212 211 -195 0
w 212 -211 195 1
w 212 -211 -195 1
w 213 212 196 0
w 213 212 -196 1
w 213 -212 196 1
w 213 -212 -196 1
w 214 213 197 0
w 214 213 -197 1
w 214 -213 197 0
w 214 -213 -197 1
w 215 214 198 0
w 215 214 -198 0
w 215 -214 198 0
w 215 -214 -198 1
w 216 215 199 1
w 216 215 -199 0
w 216 -215 199 1
w 216 -215 -199 1
w 217 216 200 1
w 217 216 -200 0
w 217 -216 200 1
w 217 -216 -200 1
w 218 217 201 0
w 218 217 -201 0
w 218 -217 201 1
w 218 -217 -201 1
w 219 218 202 0.0162084
w 219 218 -202 0.0542883
w 219 -218 202 0.0761577
w 219 -218 -202 0.133058
w 220 219 203 0
w 220 219 -203 0
w 220 -219 203 1
w 220 -219 -203 0
w 221 220 204 0
w 221 220 -204 0
w 221 -220 204 1
w 221 -220 -204 0
w 222 205 1
w 222 -205 0
w 223 222 206 1
w 223 222 -206 0
w 223 -222 206 0
w 223 -222 -206 0
w 224 223 207 1
w 224 223 -207 0
w 224 -223 207 0
w 224 -223 -207 0
w 225 224 208 0
w 225 224 -208 1
w 225 -224 208 1
w 225 -224 -208 1
w 226 225 209 0.1189
w 226 225 -209 0.840097
w 226 -225 209 0.123744
w 226 -225 -209 0.607775
w 227 226 210 0.744957
w 227 226 -210 0.612644
w 227 -226 210 0.0659495
w 227 -226 -210 0.997566
w 228 227 211 1
w 228 227 -211 1
w 228 -227 211 0
w 228 -227 -211 0
w 229 228 212 0
w 229 228 -212 1
w 229 -228 212 0
w 229 -228 -212 0
w 230 229 213 1
w 230 229 -213 1
w 230 -229 213 0
w 230 -229 -213 1
w 231 230 214 0
w 231 230 -214 1
w 231 -230 214 0
w 231 -230 -214 1
w 232 231 215 0
w 232 231 -215 1
w 232 -231 215 1
w 232 -231 -215 1
w 233 232 216 1
w 233 232 -216 0
w 233 -232 216 1
w 233 -232 -216 0
w 234 233 217 1
w 234 233 -217 0
w 234 -233 217 1
w 234 -233 -217 0
w 235 234 218 1
w 235 234 -218 0
w 235 -234 218 0
w 235 -234 -218 1
w 236 235 219 0
w 236 235 -219 0
w 236 -235 219 0
w 236 -235 -219 1
w 237 236 220 0.821716
w 237 236 -220 0.272297
w 237 -236 220 0.387692
w 237 -236 -220 0.893427
w 238 237 221 0
w 238 237 -221 0
w 238 -237 221 1
w 238 -237 -221 1
w 239 222 0
w 239 -222 1
w 240 239 223 0
w 240 239 -223 1
w 240 -239 223 1
w 240 -239 -223 1
w 241 240 224 0
w 241 240 -224 1
w 241 -240 224 1
w 241 -240 -224 1
w 242 241 225 0.921071
w 242 241 -225 0.813481
w 242 -241 225 0.642743
w 242 -241 -225 0.420683
w 243 242 226 0
w 243 242 -226 1
w 243 -242 226 1
w 243 -242 -226 1
w 244 243 227 1
w 244 243 -227 1
w 244 -243 227 0
w 244 -243 -227 1
w 245 244 228 1
w 245 244 -228 0
w 245 -244 228 0
w 245 -244 -228 0
w 246 245 229 1
w 246 245 -229 0
w 246 -245 229 0
w 246 -245 -229 0
w 247 246 230 1
w 247 246 -230 0
w 247 -246 230 1
w 247 -246 -230 0
w 248 247 231 0
w 248 247 -231 0
w 248 -247 231 1
w 248 -247 -231 0
w 249 248 232 1
w 249 248 -232 0
w 249 -248 232 1
w 249 -248 -232 0
w 250 249 233 0
w 250 249 -233 1
w 250 -249 233 1
w 250 -249 -233 1
w 251 250 234 1
w 251 250 -234 0
w 251 -250 234 1
w 251 -250 -234 1
w 252 251 235 0
w 252 251 -235 1
w 252 -251 235 0
w 252 -251 -235 0
w 253 252 236 1
w 253 252 -236 1
w 253 -252 236 0
w 253 -252 -236 0
w 254 253 237 1
w 254 253 -237 1
w 254 -253 237 1
w 254 -253 -237 0
w 255 254 238 0
w 255 254 -238 0
w 255 -254 238 0
w 255 -254 -238 1
w 256 239 0
w 256 -239 1
w 257 256 240 1
w 257 256 -240 1
w 257 -256 240 1
w 257 -256 -240 0
w 258 257 241 0
w 258 257 -241 0
w 258 -257 241 1
w 258 -257 -241 0
w 259 258 242 1
w 259 258 -242 0
w 259 -258 242 0
w 259 -258 -242 1
w 260 259 243 0
w 260 259 -243 1
w 260 -259 243 0
w 260 -259 -243 0
w 261 260 244 0
w 261 260 -244 1
w 261 -260 244 0
w 261 -260 -244 1
w 262 261 245 0
w 262 261 -245 1
w 262 -261 245 0
w 262 -261 -245 0
w 263 262 246 1
w 263 262 -246 1
w 263 -262 246 1
w 263 -262 -246 0
w 264 263 247 0.495117
w 264 263 -247 0.30428
w 264 -263 247 0.871676
w 264 -263 -247 0.05475
w 265 264 248 1
w 265 264 -248 1
w 265 -264 248 0
w 265 -264 -248 1
w 266 265 249 1
w 266 265 -249 0
w 266 -265 249 0
w 266 -265 -249 1
w 267 266 250 0
w 267 266 -250 1
w 267 -266 250 1
w 267 -266 -250 0
w 268 267 251 0
w 268 267 -251 0
w 268 -267 251 1
w 268 -267 -251 1
w 269 268 252 1
w 269 268 -252 0
w 269 -268 252 0
w 269 -268 -252 0
w 270 269 253 0
w 270 269 -253 0
w 270 -269 253 1
w 270 -269 -253 0
w 271 270 254 1
w 271 270 -254 0
w 271 -270 254 0
w 271 -270 -254 0
w 272 271 255 1
w 272 271 -255 0
w 272 -271 255 0
w 272 -271 -255 0
w 273 256 1
w 273 -256 0
w 274 273 257 1
w 274 273 -257 1
w 274 -273 257 0
w 274 -273 -257 0
w 275 274 258 0
w 275 274 -258 1
w 275 -274 258 0
w 275 -274 -258 1
w 276 275 259 0
w 276 275 -259 1
w 276 -275 259 1
w 276 -275 -259 0
w 277 276 260 1
w 277 276 -260 0
w 277 -276 260 0
w 277 -276 -260 1
w 278 277 261 0
w 278 277 -261 1
w 278 -277 261 0
w 278 -277 -261 0
w 279 278 262 0
w 279 278 -262 1
w 279 -278 262 0
w 279 -278 -262 1
w 280 279 263 0
w 280 279 -263 0
w 280 -279 263 1
w 280 -279 -263 1
w 281 280 264 1
w 281 280 -264 1
w 281 -280 264 1
w 281 -280 -264 0
w 282 281 265 0
w 282 281 -265 0
w 282 -281 265 1
w 282 -281 -265 1
w 283 282 266 0
w 283 282 -266 0
w 283 -282 266 1
w 283 -282 -266 0
w 284 283 267 1
w 284 283 -267 0
w 284 -283 267 0
w 284 -283 -267 1
w 285 284 268 0
w 285 284 -268 1
w 285 -284 268 0
w 285 -284 -268 1
w 286 285 269 0
w 286 285 -269 1
w 286 -285 269 1
w 286 -285 -269 1
w 287 286 270 1
w 287 286 -270 1
w 287 -286 270 1
w 287 -286 -270 0
w 288 287 271 1
w 288 287 -271 1
w 288 -287 271 0
w 288 -287 -271 1
w 289 288 272 1
w 289 288 -272 1
w 289 -288 272 0
w 289 -288 -272 1